*NODE
1,0,0,0
2,10,0,0
3,0,10,0
4,0,0,10
5,5,0,0
6,5,5,0
7,0,5,0
8,0,0,5
9,5,0,5
10,0,5,5
*ELEMENT,TYPE=C3D10,ELSET=ALL
1,1,2,3,4,5,6,7,8,9,10
*MATERIAL,NAME=ASSUMED
*ELASTIC
70000,.33
*SOLID SECTION,ELSET=ALL,MATERIAL=ASSUMED
*NSET,NSET=BOTTOM
1,2,3,5,6,7
*INITIAL CONDITIONS,TYPE=PLASTIC STRAIN
1,1,0,0,0,0,0,0
1,2,0,0,0,0,0,0
1,3,0,0,0,0,0,0
1,4,0,0,0,0,0,0
*BOUNDARY
BOTTOM,1,3
*STEP
*STATIC
*INITIAL STRAIN INCREASE
1,1,-.001,-.001,-.001,0,0,0
1,2,-.001,-.001,-.001,0,0,0
1,3,-.001,-.001,-.001,0,0,0
1,4,-.001,-.001,-.001,0,0,0
*NODE FILE
U
*EL PRINT,ELSET=ALL
S
*END STEP
*STEP
*STATIC
*BOUNDARY,OP=NEW
1,1,3
2,2,3
3,3,3
*NODE FILE
U
*EL PRINT,ELSET=ALL
S
*END STEP
