** 964/993 All-Carbon Monocoque - F1 topology screening only
** NOT A ROAD/TRACK/FABRICATION RELEASE
*NODE
1, 0.000000, 702.500000, 180.000000
2, 0.000000, 702.500000, 650.000000
3, 0.000000, -702.500000, 180.000000
4, 0.000000, -702.500000, 650.000000
5, 430.000000, 650.000000, 180.000000
6, 430.000000, 650.000000, 650.000000
7, 430.000000, -650.000000, 180.000000
8, 430.000000, -650.000000, 650.000000
9, 1840.000000, 650.000000, 180.000000
10, 1840.000000, 650.000000, 650.000000
11, 1840.000000, -650.000000, 180.000000
12, 1840.000000, -650.000000, 650.000000
13, 2272.000000, 722.000000, 180.000000
14, 2272.000000, 722.000000, 650.000000
15, 2272.000000, -722.000000, 180.000000
16, 2272.000000, -722.000000, 650.000000
17, 430.000000, 507.000000, 1240.000000
18, 430.000000, -507.000000, 1240.000000
19, 1840.000000, 507.000000, 1240.000000
20, 1840.000000, -507.000000, 1240.000000
21, 0.000000, 145.000000, 410.000000
22, 0.000000, -145.000000, 410.000000
23, 430.000000, 145.000000, 410.000000
24, 430.000000, -145.000000, 410.000000
25, 1840.000000, 145.000000, 410.000000
26, 1840.000000, -145.000000, 410.000000
27, 2272.000000, 145.000000, 410.000000
28, 2272.000000, -145.000000, 410.000000
*ELEMENT, TYPE=T3D2, ELSET=ALL_MEMBERS
1, 1, 3
2, 2, 4
3, 1, 2
4, 3, 4
5, 1, 4
6, 3, 2
7, 5, 7
8, 6, 8
9, 5, 6
10, 7, 8
11, 5, 8
12, 7, 6
13, 9, 11
14, 10, 12
15, 9, 10
16, 11, 12
17, 9, 12
18, 11, 10
19, 13, 15
20, 14, 16
21, 13, 14
22, 15, 16
23, 13, 16
24, 15, 14
25, 1, 5
26, 2, 6
27, 1, 6
28, 2, 5
29, 3, 7
30, 4, 8
31, 3, 8
32, 4, 7
33, 1, 7
34, 3, 5
35, 2, 8
36, 4, 6
37, 1, 8
38, 3, 6
39, 2, 7
40, 4, 5
41, 5, 9
42, 6, 10
43, 5, 10
44, 6, 9
45, 7, 11
46, 8, 12
47, 7, 12
48, 8, 11
49, 5, 11
50, 7, 9
51, 6, 12
52, 8, 10
53, 5, 12
54, 7, 10
55, 6, 11
56, 8, 9
57, 9, 13
58, 10, 14
59, 9, 14
60, 10, 13
61, 11, 15
62, 12, 16
63, 11, 16
64, 12, 15
65, 9, 15
66, 11, 13
67, 10, 16
68, 12, 14
69, 9, 16
70, 11, 14
71, 10, 15
72, 12, 13
73, 6, 17
74, 8, 18
75, 17, 18
76, 6, 18
77, 8, 17
78, 10, 19
79, 12, 20
80, 19, 20
81, 10, 20
82, 12, 19
83, 17, 19
84, 18, 20
85, 17, 20
86, 18, 19
87, 17, 12
88, 18, 10
89, 19, 8
90, 20, 6
91, 2, 17
92, 19, 14
93, 4, 18
94, 20, 16
95, 1, 21
96, 3, 21
97, 2, 21
98, 3, 22
99, 1, 22
100, 4, 22
101, 5, 23
102, 7, 23
103, 6, 23
104, 7, 24
105, 5, 24
106, 8, 24
107, 9, 25
108, 11, 25
109, 10, 25
110, 11, 26
111, 9, 26
112, 12, 26
113, 13, 27
114, 15, 27
115, 14, 27
116, 15, 28
117, 13, 28
118, 16, 28
119, 21, 23
120, 22, 24
121, 21, 24
122, 22, 23
123, 23, 25
124, 24, 26
125, 23, 26
126, 24, 25
127, 25, 27
128, 26, 28
129, 25, 28
130, 26, 27
*ELSET, ELSET=SECTION_1
37, 38, 39, 40, 53, 54, 55, 56, 69, 70, 71, 72
*SOLID SECTION, ELSET=SECTION_1, MATERIAL=CARBON_EQUIVALENT
85.000000000
*ELSET, ELSET=SECTION_2
35, 36, 51, 52, 67, 68
*SOLID SECTION, ELSET=SECTION_2, MATERIAL=CARBON_EQUIVALENT
135.000000000
*ELSET, ELSET=SECTION_3
96, 97, 99, 100, 102, 103, 105, 106, 108, 109, 111, 112
114, 115, 117, 118, 121, 122, 125, 126, 129, 130
*SOLID SECTION, ELSET=SECTION_3, MATERIAL=CARBON_EQUIVALENT
145.000000000
*ELSET, ELSET=SECTION_4
33, 34, 49, 50, 65, 66
*SOLID SECTION, ELSET=SECTION_4, MATERIAL=CARBON_EQUIVALENT
165.000000000
*ELSET, ELSET=SECTION_5
27, 28, 31, 32, 43, 44, 47, 48, 59, 60, 63, 64
*SOLID SECTION, ELSET=SECTION_5, MATERIAL=CARBON_EQUIVALENT
190.000000000
*ELSET, ELSET=SECTION_6
5, 6, 11, 12, 17, 18, 23, 24
*SOLID SECTION, ELSET=SECTION_6, MATERIAL=CARBON_EQUIVALENT
200.000000000
*ELSET, ELSET=SECTION_7
3, 4, 9, 10, 15, 16, 21, 22
*SOLID SECTION, ELSET=SECTION_7, MATERIAL=CARBON_EQUIVALENT
215.000000000
*ELSET, ELSET=SECTION_8
2, 8, 14, 20
*SOLID SECTION, ELSET=SECTION_8, MATERIAL=CARBON_EQUIVALENT
285.000000000
*ELSET, ELSET=SECTION_9
1, 7, 13, 19
*SOLID SECTION, ELSET=SECTION_9, MATERIAL=CARBON_EQUIVALENT
290.000000000
*ELSET, ELSET=SECTION_10
95, 98, 101, 104, 107, 110, 113, 116, 119, 120, 123, 124
127, 128
*SOLID SECTION, ELSET=SECTION_10, MATERIAL=CARBON_EQUIVALENT
305.000000000
*ELSET, ELSET=SECTION_11
25, 29, 41, 45, 57, 61
*SOLID SECTION, ELSET=SECTION_11, MATERIAL=CARBON_EQUIVALENT
470.000000000
*ELSET, ELSET=SECTION_12
26, 30, 42, 46, 58, 62
*SOLID SECTION, ELSET=SECTION_12, MATERIAL=CARBON_EQUIVALENT
640.000000000
*ELSET, ELSET=SECTION_13
76, 77, 81, 82, 85, 86, 87, 88, 89, 90
*SOLID SECTION, ELSET=SECTION_13, MATERIAL=CARBON_EQUIVALENT
750.000000000
*ELSET, ELSET=SECTION_14
75, 80
*SOLID SECTION, ELSET=SECTION_14, MATERIAL=CARBON_EQUIVALENT
1300.000000000
*ELSET, ELSET=SECTION_15
73, 74, 78, 79
*SOLID SECTION, ELSET=SECTION_15, MATERIAL=CARBON_EQUIVALENT
1450.000000000
*ELSET, ELSET=SECTION_16
83, 84, 91, 92, 93, 94
*SOLID SECTION, ELSET=SECTION_16, MATERIAL=CARBON_EQUIVALENT
1500.000000000
*MATERIAL, NAME=CARBON_EQUIVALENT
*ELASTIC
18000.000000, 0.300000
*DENSITY
1.550000000000e-09
*NSET, NSET=REAR_FIXED
13, 15, 14, 16, 27, 28
*NSET, NSET=FRONT_READ
1, 3
*STEP
*STATIC
*BOUNDARY
REAR_FIXED, 1, 3
*CLOAD
1, 3, 5000.000000
3, 3, -5000.000000
*NODE PRINT, NSET=FRONT_READ
U
*EL PRINT, ELSET=ALL_MEMBERS
S, E
*END STEP
